
Gurobi 11.0.3 (linux64) logging started Sat Nov 23 10:18:02 2024

Set parameter LogFile to value "/home/yihong/Coding/OR_SUC/SUC_results_bigM100000_thread4/case24_ieee_rts_theta0.1_epsilon0.05_gurobi_seed430000_num_gen100_N_WDR50_load_scaling_factor1_proposed_T24quadra_cost.txt"
Set parameter TimeLimit to value 3600
Gurobi Optimizer version 11.0.3 build v11.0.3rc0 (linux64 - "Ubuntu 20.04.6 LTS")

CPU model: AMD EPYC 7532 32-Core Processor, instruction set [SSE2|AVX|AVX2]
Thread count: 64 physical cores, 128 logical processors, using up to 4 threads

Optimize a model with 51892 rows, 29811 columns and 708694 nonzeros
Model fingerprint: 0x927e2d8f
Model has 2400 quadratic constraints
Variable types: 27411 continuous, 2400 integer (2400 binary)
Coefficient statistics:
  Matrix range     [3e-04, 2e+03]
  QMatrix range    [2e-03, 8e-03]
  QLMatrix range   [7e-02, 6e+01]
  Objective range  [1e+00, 1e+00]
  Bounds range     [1e+00, 1e+00]
  RHS range        [1e+00, 9e+03]
Presolve removed 42070 rows and 12905 columns
Presolve time: 0.26s
Presolved: 9822 rows, 16906 columns, 60628 nonzeros
Presolved model has 2400 quadratic constraint(s)
Variable types: 14506 continuous, 2400 integer (2400 binary)

Root relaxation: objective 3.209659e+04, 7049 iterations, 0.18 seconds (0.23 work units)

    Nodes    |    Current Node    |     Objective Bounds      |     Work
 Expl Unexpl |  Obj  Depth IntInf | Incumbent    BestBd   Gap | It/Node Time

     0     0 32096.5884    0   24          - 32096.5884      -     -    0s
     0     0 308994.811    0  803          - 308994.811      -     -    1s
     0     0 358149.671    0  724          - 358149.671      -     -    1s
     0     0 618687.779    0  725          - 618687.779      -     -    1s
     0     0 618709.015    0  553          - 618709.015      -     -    1s
     0     0 618951.403    0  459          - 618951.403      -     -    1s
     0     0 618952.244    0  459          - 618952.244      -     -    1s
     0     0 618952.847    0  473          - 618952.847      -     -    1s
     0     0 618953.344    0  473          - 618953.344      -     -    1s
     0     2 618954.191    0  473          - 618954.191      -     -    2s
H  437   591                    619113.22327 618955.283  0.03%  24.8    4s
*  437   591             131    619113.22327 618955.283  0.03%  24.8    4s

Cutting planes:
  Gomory: 9
  Implied bound: 312
  MIR: 44
  Flow cover: 71
  RLT: 10

Explored 641 nodes (34787 simplex iterations) in 5.36 seconds (6.26 work units)
Thread count was 4 (of 128 available processors)

Solution count 2: 619113 619113 

Optimal solution found (tolerance 1.00e-03)
Warning: max constraint violation (3.0275e-07) exceeds tolerance
Best objective 6.191132232742e+05, best bound 6.189552825375e+05, gap 0.0255%
